1561
73 47 83 39 69 89 93 40 55 42 22 41 37 34 45 27 46 36 98 52 62 78 90 13 66 60 9 14 33 95 72 6 59 57 38 5 58 53 79 82 88 63 77 18 96 15 23 49 19 11 4 85 26 50 76 30 99 61 86 75 92 70 25 44 3 43 1 84 16 12 87 28 31 80 7 21 29 71 74 54 8 68 17 67 97 35 10 48 24 94 64 81 32 65 91 51 56 2 20 
